sat
(
  (define-fun StorageProv9 () Int
    2000)
  (define-fun C3_VM5 () Int
    0)
  (define-fun C4_VM3 () Int
    0)
  (define-fun C5_VM2 () Int
    1)
  (define-fun C2_VM3 () Int
    1)
  (define-fun PriceProv6 () Int
    210)
  (define-fun ProcProv6 () Int
    4)
  (define-fun C2_VM9 () Int
    0)
  (define-fun C2_VM7 () Int
    0)
  (define-fun C4_VM1 () Int
    0)
  (define-fun C4_VM9 () Int
    0)
  (define-fun VM10Type () Int
    433)
  (define-fun C2_VM1 () Int
    1)
  (define-fun C3_VM6 () Int
    1)
  (define-fun C5_VM8 () Int
    0)
  (define-fun StorageProv7 () Int
    2000)
  (define-fun VM8Type () Int
    433)
  (define-fun PriceProv10 () Int
    116)
  (define-fun StorageProv3 () Int
    2000)
  (define-fun VM3Type () Int
    433)
  (define-fun C1_VM8 () Int
    1)
  (define-fun C1_VM7 () Int
    1)
  (define-fun PriceProv9 () Int
    116)
  (define-fun VM7Type () Int
    433)
  (define-fun StorageProv4 () Int
    2000)
  (define-fun C4_VM4 () Int
    0)
  (define-fun VM6Type () Int
    341)
  (define-fun C4_VM8 () Int
    0)
  (define-fun C2_VM4 () Int
    1)
  (define-fun C4_VM10 () Int
    0)
  (define-fun C2_VM10 () Int
    0)
  (define-fun MemProv8 () Int
    3750)
  (define-fun C4_VM7 () Int
    0)
  (define-fun C4_VM5 () Int
    0)
  (define-fun MemProv3 () Int
    3750)
  (define-fun C5_VM6 () Int
    0)
  (define-fun C3_VM9 () Int
    0)
  (define-fun PriceProv5 () Int
    210)
  (define-fun C1_VM3 () Int
    0)
  (define-fun PriceProv8 () Int
    116)
  (define-fun ProcProv8 () Int
    2)
  (define-fun StorageProv1 () Int
    2000)
  (define-fun StorageProv10 () Int
    2000)
  (define-fun ProcProv3 () Int
    2)
  (define-fun C1_VM4 () Int
    0)
  (define-fun C3_VM3 () Int
    0)
  (define-fun PriceProv3 () Int
    116)
  (define-fun MemProv5 () Int
    7500)
  (define-fun C2_VM6 () Int
    0)
  (define-fun ProcProv4 () Int
    2)
  (define-fun VM9Type () Int
    433)
  (define-fun C4_VM6 () Int
    0)
  (define-fun C1_VM10 () Int
    1)
  (define-fun MemProv4 () Int
    3750)
  (define-fun StorageProv8 () Int
    2000)
  (define-fun C2_VM2 () Int
    0)
  (define-fun C5_VM4 () Int
    0)
  (define-fun C5_VM1 () Int
    0)
  (define-fun C5_VM10 () Int
    0)
  (define-fun C3_VM8 () Int
    0)
  (define-fun C5_VM9 () Int
    0)
  (define-fun StorageProv6 () Int
    2000)
  (define-fun C2_VM5 () Int
    0)
  (define-fun VM4Type () Int
    433)
  (define-fun ProcProv1 () Int
    2)
  (define-fun MemProv2 () Int
    7500)
  (define-fun C3_VM10 () Int
    0)
  (define-fun C3_VM2 () Int
    0)
  (define-fun MemProv1 () Int
    3750)
  (define-fun PriceProv1 () Int
    116)
  (define-fun PriceProv4 () Int
    116)
  (define-fun ProcProv2 () Int
    4)
  (define-fun StorageProv2 () Int
    2000)
  (define-fun ProcProv7 () Int
    2)
  (define-fun C3_VM1 () Int
    0)
  (define-fun C3_VM7 () Int
    0)
  (define-fun MemProv9 () Int
    3750)
  (define-fun C1_VM5 () Int
    0)
  (define-fun C1_VM9 () Int
    1)
  (define-fun VM5Type () Int
    341)
  (define-fun C5_VM7 () Int
    0)
  (define-fun C3_VM4 () Int
    0)
  (define-fun ProcProv10 () Int
    2)
  (define-fun MemProv7 () Int
    3750)
  (define-fun VM1Type () Int
    433)
  (define-fun C1_VM1 () Int
    0)
  (define-fun C5_VM3 () Int
    0)
  (define-fun PriceProv2 () Int
    210)
  (define-fun VM2Type () Int
    341)
  (define-fun ProcProv9 () Int
    2)
  (define-fun StorageProv5 () Int
    2000)
  (define-fun C1_VM6 () Int
    0)
  (define-fun C4_VM2 () Int
    0)
  (define-fun C2_VM8 () Int
    0)
  (define-fun C5_VM5 () Int
    1)
  (define-fun MemProv6 () Int
    7500)
  (define-fun PriceProv7 () Int
    116)
  (define-fun MemProv10 () Int
    3750)
  (define-fun ProcProv5 () Int
    4)
  (define-fun C1_VM2 () Int
    0)
)
(objectives
 ( 35)
 ((+ 0
   PriceProv1
   PriceProv2
   PriceProv3
   PriceProv4
   PriceProv5
   PriceProv6
   PriceProv7
   PriceProv8
   PriceProv9
   PriceProv10) 1442)
)
(:added-eqs                   803476
 :arith-eq-adapter            311611
 :arith-bound-propagations-lp 1001
 :arith-conflicts             49
 :arith-diseq                 621144
 :arith-fixed-eqs             2998
 :arith-lower                 691768
 :arith-make-feasible         218296
 :arith-max-columns           615
 :arith-max-rows              32
 :arith-upper                 570567
 :binary-propagations         2426736
 :bv-bit2core                 11362
 :bv-dynamic-diseqs           1168396
 :bv-dynamic-eqs              2
 :bv->core-eq                 2960
 :conflicts                   3613
 :decisions                   665542
 :del-clause                  1454897
 :final-checks                34
 :max-memory                  123.66
 :maxsat-cores                10
 :memory                      119.88
 :minimized-lits              743
 :mk-bool-var                 632639
 :mk-clause                   1460637
 :mk-clause-binary            24314
 :num-allocs                  3009589008
 :num-checks                  55
 :pb-conflicts                89
 :pb-predicates               7
 :pb-propagations             4067
 :pb-resolves                 6
 :propagations                2968546
 :restarts                    25
 :rlimit-count                36564132
 :time                        5.74
 :total-time                  5.77)
